
Gurobi 10.0.3 (win64, Python) logging started Mon Dec 18 12:33:26 2023

Set parameter Username
Set parameter LogFile to value "gurobi.log"
Academic license - for non-commercial use only - expires 2024-09-16
Read LP format model from file few4_multi.lp
Reading time = 0.03 seconds
: 2593 rows, 800 columns, 15104 nonzeros
Set parameter PoolSearchMode to value 2
Set parameter PoolSolutions to value 2
Set parameter PoolGap to value 0
Set parameter SolFiles to value ".\test"
Gurobi Optimizer version 10.0.3 build v10.0.3rc0 (win64)

CPU model: Intel(R) Core(TM) i7-8565U CPU @ 1.80GHz, instruction set [SSE2|AVX|AVX2]
Thread count: 4 physical cores, 8 logical processors, using up to 8 threads

Optimize a model with 2593 rows, 800 columns and 15104 nonzeros
Model fingerprint: 0x60666f72
Variable types: 0 continuous, 800 integer (800 binary)
Coefficient statistics:
  Matrix range     [1e+00, 8e+00]
  Objective range  [2e+00, 3e+00]
  Bounds range     [1e+00, 1e+00]
  RHS range        [1e+00, 7e+00]
Presolve removed 2565 rows and 716 columns
Presolve time: 0.04s
Presolved: 28 rows, 84 columns, 84 nonzeros
Variable types: 0 continuous, 84 integer (84 binary)
Found heuristic solution: objective 12.0000000

Root relaxation: objective 1.200000e+01, 28 iterations, 0.00 seconds (0.00 work units)

    Nodes    |    Current Node    |     Objective Bounds      |     Work
 Expl Unexpl |  Obj  Depth IntInf | Incumbent    BestBd   Gap | It/Node Time

     0     0          -    0        12.00000   12.00000  0.00%     -    0s

Explored 1 nodes (28 simplex iterations) in 0.07 seconds (0.03 work units)
Thread count was 8 (of 8 available processors)

Solution count 2: 12 12 

Optimal solution found (tolerance 1.00e-04)
Best objective 1.200000000000e+01, best bound 1.200000000000e+01, gap 0.0000%

Gurobi 10.0.3 (win64, Python) logging started Mon Dec 18 18:06:59 2023

Set parameter Username
Set parameter LogFile to value "gurobi.log"
Academic license - for non-commercial use only - expires 2024-09-16
Read LP format model from file few4_multi.lp
Reading time = 0.02 seconds
: 2849 rows, 800 columns, 15616 nonzeros
Set parameter PoolSearchMode to value 2
Set parameter PoolSolutions to value 2
Set parameter PoolGap to value 0
Set parameter SolFiles to value ".\few4_multi"
Gurobi Optimizer version 10.0.3 build v10.0.3rc0 (win64)

CPU model: Intel(R) Core(TM) i7-8565U CPU @ 1.80GHz, instruction set [SSE2|AVX|AVX2]
Thread count: 4 physical cores, 8 logical processors, using up to 8 threads

Optimize a model with 2849 rows, 800 columns and 15616 nonzeros
Model fingerprint: 0x2e86a442
Variable types: 0 continuous, 800 integer (800 binary)
Coefficient statistics:
  Matrix range     [1e+00, 8e+00]
  Objective range  [2e+00, 3e+00]
  Bounds range     [1e+00, 1e+00]
  RHS range        [1e+00, 7e+00]
Presolve removed 2849 rows and 800 columns
Presolve time: 0.04s
Presolve: All rows and columns removed

Explored 0 nodes (0 simplex iterations) in 0.06 seconds (0.04 work units)
Thread count was 1 (of 8 available processors)

Solution count 1: 12 

Optimal solution found (tolerance 1.00e-04)
Best objective 1.200000000000e+01, best bound 1.200000000000e+01, gap 0.0000%
